(set-info :smt-lib-version 2.6)
(set-logic UF)
(set-info :source |Benchmarks from the paper: "Extending Sledgehammer with SMT Solvers" by Jasmin Blanchette, Sascha Bohme, and Lawrence C. Paulson, CADE 2011.  Translated to SMT2 by Andrew Reynolds and Morgan Deters.|)
(set-info :category "industrial")
(set-info :status sat)
(declare-sort S1 0)
(declare-sort S2 0)
(declare-sort S3 0)
(declare-sort S4 0)
(declare-sort S5 0)
(declare-sort S6 0)
(declare-sort S7 0)
(declare-sort S8 0)
(declare-sort S9 0)
(declare-sort S10 0)
(declare-sort S11 0)
(declare-sort S12 0)
(declare-sort S13 0)
(declare-sort S14 0)
(declare-sort S15 0)
(declare-sort S16 0)
(declare-sort S17 0)
(declare-fun f1 () S1)
(declare-fun f2 () S1)
(declare-fun f3 (S3 S2) S1)
(declare-fun f4 () S3)
(declare-fun f5 (S4 S2) S3)
(declare-fun f6 () S4)
(declare-fun f7 () S2)
(declare-fun f8 () S2)
(declare-fun f9 () S3)
(declare-fun f10 (S5 S3) S3)
(declare-fun f11 (S6 S3) S5)
(declare-fun f12 () S6)
(declare-fun f13 () S3)
(declare-fun f14 () S5)
(declare-fun f15 () S2)
(declare-fun f16 (S7 S3) S1)
(declare-fun f17 (S8 S2) S7)
(declare-fun f18 () S8)
(declare-fun f19 () S4)
(declare-fun f20 () S2)
(declare-fun f21 (S9 S1) S1)
(declare-fun f22 (S10 S1) S9)
(declare-fun f23 () S10)
(declare-fun f24 (S11 S3) S7)
(declare-fun f25 () S11)
(declare-fun f26 () S11)
(declare-fun f27 () S10)
(declare-fun f28 () S1)
(declare-fun f29 () S6)
(declare-fun f30 (S12 S1) S2)
(declare-fun f31 (S13 S3) S2)
(declare-fun f32 (S14 S9) S9)
(declare-fun f33 (S15 S9) S14)
(declare-fun f34 () S15)
(declare-fun f35 () S15)
(declare-fun f36 (S16 S7) S7)
(declare-fun f37 (S17 S7) S16)
(declare-fun f38 () S17)
(declare-fun f39 () S17)
(assert (not (= f1 f2)))
(assert (forall ((?v0 S2)) (= (= (f3 f4 ?v0) f1) true)))
(assert (not (= (f3 (f5 f6 f7) f8) f1)))
(assert (forall ((?v0 S2)) (=> (= (f3 f9 ?v0) f1) (= (f3 (f5 f6 ?v0) f8) f1))))
(assert (= (f3 (f10 (f11 f12 f13) (f10 f14 f9)) f7) f1))
(assert (= (f3 f9 f15) f1))
(assert (forall ((?v0 S2)) (=> (= (f3 f9 ?v0) f1) (= (f3 (f5 f6 ?v0) f8) f1))))
(assert (= (f3 (f10 (f11 f12 f13) (f10 f14 f9)) f7) f1))
(assert (exists ((?v0 S2)) (= (f16 (f17 f18 ?v0) (f10 f14 f9)) f1)))
(assert (forall ((?v0 S2)) (=> (= (f3 f9 ?v0) f1) (= (f3 (f5 f6 ?v0) f7) f1))))
(assert (= (f3 (f5 f19 f8) f7) f1))
(assert (= (f3 (f5 f6 f7) f20) f1))
(assert (forall ((?v0 S2)) (=> (= (f3 f9 ?v0) f1) (not (= (f3 (f5 f19 f8) ?v0) f1)))))
(assert (forall ((?v0 S2)) (= (f3 (f5 f6 ?v0) ?v0) f1)))
(assert (forall ((?v0 S1)) (= (f21 (f22 f23 ?v0) ?v0) f1)))
(assert (forall ((?v0 S3)) (= (f16 (f24 f25 ?v0) ?v0) f1)))
(assert (forall ((?v0 S2)) (let ((?v_0 (f5 f19 f8))) (=> (= (f3 f9 ?v0) f1) (=> (= (f3 ?v_0 ?v0) f1) (= (f3 ?v_0 f7) f1))))))
(assert (forall ((?v0 S2)) (=> (= (f3 f9 ?v0) f1) (= (f3 (f5 f6 ?v0) f20) f1))))
(assert (forall ((?v0 S2)) (= (f3 (f5 f6 ?v0) ?v0) f1)))
(assert (forall ((?v0 S2) (?v1 S2)) (or (= (f3 (f5 f6 ?v0) ?v1) f1) (= (f3 (f5 f6 ?v1) ?v0) f1))))
(assert (forall ((?v0 S2) (?v1 S2) (?v2 S2)) (let ((?v_0 (f5 f6 ?v0))) (=> (= (f3 ?v_0 ?v1) f1) (=> (= (f3 (f5 f6 ?v1) ?v2) f1) (= (f3 ?v_0 ?v2) f1))))))
(assert (forall ((?v0 S2) (?v1 S2)) (=> (= (f3 (f5 f6 ?v0) ?v1) f1) (=> (= (f3 (f5 f6 ?v1) ?v0) f1) (= ?v0 ?v1)))))
(assert (forall ((?v0 S3) (?v1 S3)) (= (= (f16 (f24 f25 ?v0) ?v1) f1) (forall ((?v2 S2)) (= (f21 (f22 f23 (f3 ?v0 ?v2)) (f3 ?v1 ?v2)) f1)))))
(assert (forall ((?v0 S2) (?v1 S2)) (or (= (f3 (f5 f6 ?v0) ?v1) f1) (= (f3 (f5 f6 ?v1) ?v0) f1))))
(assert (forall ((?v0 S2) (?v1 S2)) (= (= ?v0 ?v1) (and (= (f3 (f5 f6 ?v0) ?v1) f1) (= (f3 (f5 f6 ?v1) ?v0) f1)))))
(assert (forall ((?v0 S1) (?v1 S1)) (= (= (= ?v0 f1) (= ?v1 f1)) (and (= (f21 (f22 f23 ?v0) ?v1) f1) (= (f21 (f22 f23 ?v1) ?v0) f1)))))
(assert (forall ((?v0 S3) (?v1 S3)) (= (= ?v0 ?v1) (and (= (f16 (f24 f25 ?v0) ?v1) f1) (= (f16 (f24 f25 ?v1) ?v0) f1)))))
(assert (forall ((?v0 S2) (?v1 S2)) (=> (= ?v0 ?v1) (= (f3 (f5 f6 ?v0) ?v1) f1))))
(assert (forall ((?v0 S1) (?v1 S1)) (=> (= (= ?v0 f1) (= ?v1 f1)) (= (f21 (f22 f23 ?v0) ?v1) f1))))
(assert (forall ((?v0 S3) (?v1 S3)) (=> (= ?v0 ?v1) (= (f16 (f24 f25 ?v0) ?v1) f1))))
(assert (exists ((?v0 S2)) (= (f3 f9 ?v0) f1)))
(assert (exists ((?v0 S2)) (forall ((?v1 S2)) (=> (= (f3 f9 ?v1) f1) (= (f3 (f5 f19 ?v1) ?v0) f1)))))
(assert (forall ((?v0 S2)) (=> (= (f3 f9 ?v0) f1) (= (f3 (f5 f19 ?v0) f20) f1))))
(assert (= (f3 (f5 f19 f15) f20) f1))
(assert (=> (forall ((?v0 S2)) (=> (= (f3 (f10 (f11 f12 f13) (f10 f14 f9)) ?v0) f1) false)) false))
(assert (exists ((?v0 S2)) (= (f3 (f10 (f11 f12 f13) (f10 f14 f9)) ?v0) f1)))
(assert (=> (forall ((?v0 S2) (?v1 S2)) (=> (= (f3 f9 ?v0) f1) (=> (forall ((?v2 S2)) (=> (= (f3 f9 ?v2) f1) (= (f3 (f5 f19 ?v2) ?v1) f1))) false))) false))
(assert (forall ((?v0 S3)) (not (= (f16 (f24 f26 f13) ?v0) f1))))
(assert (forall ((?v0 S1)) (not (= (f21 (f22 f27 f28) ?v0) f1))))
(assert (forall ((?v0 S2)) (not (= (f3 (f5 f19 ?v0) ?v0) f1))))
(assert (forall ((?v0 S1)) (not (= (f21 (f22 f27 ?v0) ?v0) f1))))
(assert (forall ((?v0 S3)) (not (= (f16 (f24 f26 ?v0) ?v0) f1))))
(assert (forall ((?v0 S2)) (= (= (f3 f13 ?v0) f1) (= f28 f1))))
(assert (forall ((?v0 S3)) (= (not (= ?v0 f13)) (= (f16 (f24 f26 ?v0) f13) f1))))
(assert (forall ((?v0 S1)) (= (not (= (= ?v0 f1) (= f28 f1))) (= (f21 (f22 f27 ?v0) f28) f1))))
(assert (forall ((?v0 S2) (?v1 S2)) (= (not (= ?v0 ?v1)) (or (= (f3 (f5 f19 ?v0) ?v1) f1) (= (f3 (f5 f19 ?v1) ?v0) f1)))))
(assert (forall ((?v0 S2) (?v1 S2)) (= (not (= (f3 (f5 f19 ?v0) ?v1) f1)) (or (= (f3 (f5 f19 ?v1) ?v0) f1) (= ?v0 ?v1)))))
(assert (forall ((?v0 S2) (?v1 S2)) (or (= (f3 (f5 f19 ?v0) ?v1) f1) (or (= ?v0 ?v1) (= (f3 (f5 f19 ?v1) ?v0) f1)))))
(assert (forall ((?v0 S2) (?v1 S2)) (=> (not (= (f3 (f5 f19 ?v0) ?v1) f1)) (= (not (= (f3 (f5 f19 ?v1) ?v0) f1)) (= ?v1 ?v0)))))
(assert (forall ((?v0 S2) (?v1 S2)) (=> (not (= ?v0 ?v1)) (=> (=> (= (f3 (f5 f19 ?v0) ?v1) f1) false) (=> (=> (= (f3 (f5 f19 ?v1) ?v0) f1) false) false)))))
(assert (forall ((?v0 S2) (?v1 S2)) (=> (= (f3 (f5 f19 ?v0) ?v1) f1) (not (= ?v0 ?v1)))))
(assert (forall ((?v0 S1) (?v1 S1)) (=> (= (f21 (f22 f27 ?v0) ?v1) f1) (not (= (= ?v0 f1) (= ?v1 f1))))))
(assert (forall ((?v0 S3) (?v1 S3)) (=> (= (f16 (f24 f26 ?v0) ?v1) f1) (not (= ?v0 ?v1)))))
(assert (forall ((?v0 S2) (?v1 S2)) (=> (= (f3 (f5 f19 ?v0) ?v1) f1) (not (= (f3 (f5 f19 ?v1) ?v0) f1)))))
(assert (forall ((?v0 S1) (?v1 S1)) (=> (= (f21 (f22 f27 ?v0) ?v1) f1) (not (= (f21 (f22 f27 ?v1) ?v0) f1)))))
(assert (forall ((?v0 S3) (?v1 S3)) (=> (= (f16 (f24 f26 ?v0) ?v1) f1) (not (= (f16 (f24 f26 ?v1) ?v0) f1)))))
(assert (forall ((?v0 S2) (?v1 S2)) (=> (= (f3 (f5 f19 ?v0) ?v1) f1) (= (not (= (f3 (f5 f19 ?v1) ?v0) f1)) true))))
(assert (forall ((?v0 S1) (?v1 S1)) (=> (= (f21 (f22 f27 ?v0) ?v1) f1) (= (not (= (f21 (f22 f27 ?v1) ?v0) f1)) true))))
(assert (forall ((?v0 S3) (?v1 S3)) (=> (= (f16 (f24 f26 ?v0) ?v1) f1) (= (not (= (f16 (f24 f26 ?v1) ?v0) f1)) true))))
(assert (forall ((?v0 S2) (?v1 S2)) (=> (= (f3 (f5 f19 ?v0) ?v1) f1) (= (= ?v0 ?v1) false))))
(assert (forall ((?v0 S1) (?v1 S1)) (=> (= (f21 (f22 f27 ?v0) ?v1) f1) (= (= (= ?v0 f1) (= ?v1 f1)) false))))
(assert (forall ((?v0 S3) (?v1 S3)) (=> (= (f16 (f24 f26 ?v0) ?v1) f1) (= (= ?v0 ?v1) false))))
(assert (forall ((?v0 S2) (?v1 S2)) (=> (= (f3 (f5 f19 ?v0) ?v1) f1) (= (= ?v1 ?v0) false))))
(assert (forall ((?v0 S1) (?v1 S1)) (=> (= (f21 (f22 f27 ?v0) ?v1) f1) (= (= (= ?v1 f1) (= ?v0 f1)) false))))
(assert (forall ((?v0 S3) (?v1 S3)) (=> (= (f16 (f24 f26 ?v0) ?v1) f1) (= (= ?v1 ?v0) false))))
(assert (forall ((?v0 S2) (?v1 S2) (?v2 S1)) (=> (= (f3 (f5 f19 ?v0) ?v1) f1) (= (=> (= (f3 (f5 f19 ?v1) ?v0) f1) (= ?v2 f1)) true))))
(assert (forall ((?v0 S1) (?v1 S1) (?v2 S1)) (=> (= (f21 (f22 f27 ?v0) ?v1) f1) (= (=> (= (f21 (f22 f27 ?v1) ?v0) f1) (= ?v2 f1)) true))))
(assert (forall ((?v0 S3) (?v1 S3) (?v2 S1)) (=> (= (f16 (f24 f26 ?v0) ?v1) f1) (= (=> (= (f16 (f24 f26 ?v1) ?v0) f1) (= ?v2 f1)) true))))
(assert (forall ((?v0 S2) (?v1 S2)) (=> (= (f3 (f5 f19 ?v0) ?v1) f1) (=> (= (f3 (f5 f19 ?v1) ?v0) f1) false))))
(assert (forall ((?v0 S1) (?v1 S1)) (=> (= (f21 (f22 f27 ?v0) ?v1) f1) (=> (= (f21 (f22 f27 ?v1) ?v0) f1) false))))
(assert (forall ((?v0 S3) (?v1 S3)) (=> (= (f16 (f24 f26 ?v0) ?v1) f1) (=> (= (f16 (f24 f26 ?v1) ?v0) f1) false))))
(assert (forall ((?v0 S2) (?v1 S2)) (=> (= (f3 (f5 f19 ?v0) ?v1) f1) (=> (= (f3 (f5 f19 ?v1) ?v0) f1) false))))
(assert (forall ((?v0 S1) (?v1 S1)) (=> (= (f21 (f22 f27 ?v0) ?v1) f1) (=> (= (f21 (f22 f27 ?v1) ?v0) f1) false))))
(assert (forall ((?v0 S3) (?v1 S3)) (=> (= (f16 (f24 f26 ?v0) ?v1) f1) (=> (= (f16 (f24 f26 ?v1) ?v0) f1) false))))
(assert (forall ((?v0 S2) (?v1 S2) (?v2 S2)) (=> (= ?v0 ?v1) (=> (= (f3 (f5 f19 ?v1) ?v2) f1) (= (f3 (f5 f19 ?v0) ?v2) f1)))))
(assert (forall ((?v0 S1) (?v1 S1) (?v2 S1)) (=> (= (= ?v0 f1) (= ?v1 f1)) (=> (= (f21 (f22 f27 ?v1) ?v2) f1) (= (f21 (f22 f27 ?v0) ?v2) f1)))))
(assert (forall ((?v0 S3) (?v1 S3) (?v2 S3)) (=> (= ?v0 ?v1) (=> (= (f16 (f24 f26 ?v1) ?v2) f1) (= (f16 (f24 f26 ?v0) ?v2) f1)))))
(assert (forall ((?v0 S2) (?v1 S2) (?v2 S2)) (let ((?v_0 (f5 f19 ?v2))) (=> (= ?v0 ?v1) (=> (= (f3 ?v_0 ?v1) f1) (= (f3 ?v_0 ?v0) f1))))))
(assert (forall ((?v0 S1) (?v1 S1) (?v2 S1)) (let ((?v_0 (f22 f27 ?v2))) (=> (= (= ?v0 f1) (= ?v1 f1)) (=> (= (f21 ?v_0 ?v1) f1) (= (f21 ?v_0 ?v0) f1))))))
(assert (forall ((?v0 S3) (?v1 S3) (?v2 S3)) (let ((?v_0 (f24 f26 ?v2))) (=> (= ?v0 ?v1) (=> (= (f16 ?v_0 ?v1) f1) (= (f16 ?v_0 ?v0) f1))))))
(assert (forall ((?v0 S2) (?v1 S2) (?v2 S2)) (let ((?v_0 (f5 f19 ?v0))) (=> (= (f3 ?v_0 ?v1) f1) (=> (= ?v1 ?v2) (= (f3 ?v_0 ?v2) f1))))))
(assert (forall ((?v0 S1) (?v1 S1) (?v2 S1)) (let ((?v_0 (f22 f27 ?v0))) (=> (= (f21 ?v_0 ?v1) f1) (=> (= (= ?v1 f1) (= ?v2 f1)) (= (f21 ?v_0 ?v2) f1))))))
(assert (forall ((?v0 S3) (?v1 S3) (?v2 S3)) (let ((?v_0 (f24 f26 ?v0))) (=> (= (f16 ?v_0 ?v1) f1) (=> (= ?v1 ?v2) (= (f16 ?v_0 ?v2) f1))))))
(assert (forall ((?v0 S2) (?v1 S2) (?v2 S2)) (=> (= (f3 (f5 f19 ?v0) ?v1) f1) (=> (= ?v0 ?v2) (= (f3 (f5 f19 ?v2) ?v1) f1)))))
(assert (forall ((?v0 S1) (?v1 S1) (?v2 S1)) (=> (= (f21 (f22 f27 ?v0) ?v1) f1) (=> (= (= ?v0 f1) (= ?v2 f1)) (= (f21 (f22 f27 ?v2) ?v1) f1)))))
(assert (forall ((?v0 S3) (?v1 S3) (?v2 S3)) (=> (= (f16 (f24 f26 ?v0) ?v1) f1) (=> (= ?v0 ?v2) (= (f16 (f24 f26 ?v2) ?v1) f1)))))
(assert (forall ((?v0 S2) (?v1 S2) (?v2 S2)) (let ((?v_0 (f5 f19 ?v0))) (=> (= (f3 ?v_0 ?v1) f1) (=> (= (f3 (f5 f19 ?v1) ?v2) f1) (= (f3 ?v_0 ?v2) f1))))))
(assert (forall ((?v0 S1) (?v1 S1) (?v2 S1)) (let ((?v_0 (f22 f27 ?v0))) (=> (= (f21 ?v_0 ?v1) f1) (=> (= (f21 (f22 f27 ?v1) ?v2) f1) (= (f21 ?v_0 ?v2) f1))))))
(assert (forall ((?v0 S3) (?v1 S3) (?v2 S3)) (let ((?v_0 (f24 f26 ?v0))) (=> (= (f16 ?v_0 ?v1) f1) (=> (= (f16 (f24 f26 ?v1) ?v2) f1) (= (f16 ?v_0 ?v2) f1))))))
(assert (forall ((?v0 S2) (?v1 S2) (?v2 S2)) (let ((?v_0 (f5 f19 ?v2))) (=> (= (f3 (f5 f19 ?v0) ?v1) f1) (=> (= (f3 ?v_0 ?v0) f1) (= (f3 ?v_0 ?v1) f1))))))
(assert (forall ((?v0 S1) (?v1 S1) (?v2 S1)) (let ((?v_0 (f22 f27 ?v2))) (=> (= (f21 (f22 f27 ?v0) ?v1) f1) (=> (= (f21 ?v_0 ?v0) f1) (= (f21 ?v_0 ?v1) f1))))))
(assert (forall ((?v0 S3) (?v1 S3) (?v2 S3)) (let ((?v_0 (f24 f26 ?v2))) (=> (= (f16 (f24 f26 ?v0) ?v1) f1) (=> (= (f16 ?v_0 ?v0) f1) (= (f16 ?v_0 ?v1) f1))))))
(assert (forall ((?v0 S2) (?v1 S2)) (=> (= (f3 (f5 f19 ?v0) ?v1) f1) (=> (=> (not false) (= (f3 (f5 f19 ?v1) ?v0) f1)) false))))
(assert (forall ((?v0 S1) (?v1 S1)) (=> (= (f21 (f22 f27 ?v0) ?v1) f1) (=> (=> (not false) (= (f21 (f22 f27 ?v1) ?v0) f1)) false))))
(assert (forall ((?v0 S3) (?v1 S3)) (=> (= (f16 (f24 f26 ?v0) ?v1) f1) (=> (=> (not false) (= (f16 (f24 f26 ?v1) ?v0) f1)) false))))
(assert (forall ((?v0 S2) (?v1 S2)) (=> (=> (= (f3 (f5 f19 ?v0) ?v1) f1) false) (=> (=> (= ?v0 ?v1) false) (=> (=> (= (f3 (f5 f19 ?v1) ?v0) f1) false) false)))))
(assert (forall ((?v0 S2) (?v1 S2) (?v2 S2)) (let ((?v_0 (f5 f19 ?v2))) (=> (= (f3 (f5 f6 ?v0) ?v1) f1) (=> (= (f3 ?v_0 ?v0) f1) (= (f3 ?v_0 ?v1) f1))))))
(assert (forall ((?v0 S1) (?v1 S1) (?v2 S1)) (let ((?v_0 (f22 f27 ?v2))) (=> (= (f21 (f22 f23 ?v0) ?v1) f1) (=> (= (f21 ?v_0 ?v0) f1) (= (f21 ?v_0 ?v1) f1))))))
(assert (forall ((?v0 S3) (?v1 S3) (?v2 S3)) (let ((?v_0 (f24 f26 ?v2))) (=> (= (f16 (f24 f25 ?v0) ?v1) f1) (=> (= (f16 ?v_0 ?v0) f1) (= (f16 ?v_0 ?v1) f1))))))
(assert (forall ((?v0 S2) (?v1 S2) (?v2 S2)) (=> (= (f3 (f5 f6 ?v0) ?v1) f1) (=> (= (f3 (f5 f19 ?v1) ?v2) f1) (= (f3 (f5 f19 ?v0) ?v2) f1)))))
(assert (forall ((?v0 S1) (?v1 S1) (?v2 S1)) (=> (= (f21 (f22 f23 ?v0) ?v1) f1) (=> (= (f21 (f22 f27 ?v1) ?v2) f1) (= (f21 (f22 f27 ?v0) ?v2) f1)))))
(assert (forall ((?v0 S3) (?v1 S3) (?v2 S3)) (=> (= (f16 (f24 f25 ?v0) ?v1) f1) (=> (= (f16 (f24 f26 ?v1) ?v2) f1) (= (f16 (f24 f26 ?v0) ?v2) f1)))))
(assert (forall ((?v0 S2) (?v1 S2) (?v2 S2)) (=> (= (f3 (f5 f19 ?v0) ?v1) f1) (=> (= (f3 (f5 f6 ?v2) ?v0) f1) (= (f3 (f5 f19 ?v2) ?v1) f1)))))
(assert (forall ((?v0 S1) (?v1 S1) (?v2 S1)) (=> (= (f21 (f22 f27 ?v0) ?v1) f1) (=> (= (f21 (f22 f23 ?v2) ?v0) f1) (= (f21 (f22 f27 ?v2) ?v1) f1)))))
(assert (forall ((?v0 S3) (?v1 S3) (?v2 S3)) (=> (= (f16 (f24 f26 ?v0) ?v1) f1) (=> (= (f16 (f24 f25 ?v2) ?v0) f1) (= (f16 (f24 f26 ?v2) ?v1) f1)))))
(assert (forall ((?v0 S2) (?v1 S2) (?v2 S2)) (let ((?v_0 (f5 f19 ?v0))) (=> (= (f3 ?v_0 ?v1) f1) (=> (= (f3 (f5 f6 ?v1) ?v2) f1) (= (f3 ?v_0 ?v2) f1))))))
(assert (forall ((?v0 S1) (?v1 S1) (?v2 S1)) (let ((?v_0 (f22 f27 ?v0))) (=> (= (f21 ?v_0 ?v1) f1) (=> (= (f21 (f22 f23 ?v1) ?v2) f1) (= (f21 ?v_0 ?v2) f1))))))
(assert (forall ((?v0 S3) (?v1 S3) (?v2 S3)) (let ((?v_0 (f24 f26 ?v0))) (=> (= (f16 ?v_0 ?v1) f1) (=> (= (f16 (f24 f25 ?v1) ?v2) f1) (= (f16 ?v_0 ?v2) f1))))))
(assert (forall ((?v0 S2) (?v1 S2)) (=> (= (f3 (f5 f6 ?v0) ?v1) f1) (=> (not (= ?v1 ?v0)) (= (f3 (f5 f19 ?v0) ?v1) f1)))))
(assert (forall ((?v0 S1) (?v1 S1)) (=> (= (f21 (f22 f23 ?v0) ?v1) f1) (=> (not (= (= ?v1 f1) (= ?v0 f1))) (= (f21 (f22 f27 ?v0) ?v1) f1)))))
(assert (forall ((?v0 S3) (?v1 S3)) (=> (= (f16 (f24 f25 ?v0) ?v1) f1) (=> (not (= ?v1 ?v0)) (= (f16 (f24 f26 ?v0) ?v1) f1)))))
(assert (forall ((?v0 S2) (?v1 S2)) (=> (= (f3 (f5 f6 ?v0) ?v1) f1) (=> (not (= ?v0 ?v1)) (= (f3 (f5 f19 ?v0) ?v1) f1)))))
(assert (forall ((?v0 S1) (?v1 S1)) (=> (= (f21 (f22 f23 ?v0) ?v1) f1) (=> (not (= (= ?v0 f1) (= ?v1 f1))) (= (f21 (f22 f27 ?v0) ?v1) f1)))))
(assert (forall ((?v0 S3) (?v1 S3)) (=> (= (f16 (f24 f25 ?v0) ?v1) f1) (=> (not (= ?v0 ?v1)) (= (f16 (f24 f26 ?v0) ?v1) f1)))))
(assert (forall ((?v0 S2) (?v1 S2)) (=> (= (f3 (f5 f6 ?v0) ?v1) f1) (or (= (f3 (f5 f19 ?v0) ?v1) f1) (= ?v0 ?v1)))))
(assert (forall ((?v0 S1) (?v1 S1)) (=> (= (f21 (f22 f23 ?v0) ?v1) f1) (or (= (f21 (f22 f27 ?v0) ?v1) f1) (= (= ?v0 f1) (= ?v1 f1))))))
(assert (forall ((?v0 S3) (?v1 S3)) (=> (= (f16 (f24 f25 ?v0) ?v1) f1) (or (= (f16 (f24 f26 ?v0) ?v1) f1) (= ?v0 ?v1)))))
(assert (forall ((?v0 S2) (?v1 S2)) (=> (= (f3 (f5 f6 ?v0) ?v1) f1) (= (not (= (f3 (f5 f19 ?v0) ?v1) f1)) (= ?v0 ?v1)))))
(assert (forall ((?v0 S2) (?v1 S2)) (=> (= (f3 (f5 f19 ?v0) ?v1) f1) (= (f3 (f5 f6 ?v0) ?v1) f1))))
(assert (forall ((?v0 S1) (?v1 S1)) (=> (= (f21 (f22 f27 ?v0) ?v1) f1) (= (f21 (f22 f23 ?v0) ?v1) f1))))
(assert (forall ((?v0 S3) (?v1 S3)) (=> (= (f16 (f24 f26 ?v0) ?v1) f1) (= (f16 (f24 f25 ?v0) ?v1) f1))))
(assert (forall ((?v0 S2) (?v1 S2)) (=> (= (f3 (f5 f6 ?v0) ?v1) f1) (not (= (f3 (f5 f19 ?v1) ?v0) f1)))))
(assert (forall ((?v0 S2) (?v1 S2)) (=> (not (= ?v0 ?v1)) (=> (= (f3 (f5 f6 ?v1) ?v0) f1) (= (f3 (f5 f19 ?v1) ?v0) f1)))))
(assert (forall ((?v0 S1) (?v1 S1)) (=> (not (= (= ?v0 f1) (= ?v1 f1))) (=> (= (f21 (f22 f23 ?v1) ?v0) f1) (= (f21 (f22 f27 ?v1) ?v0) f1)))))
(assert (forall ((?v0 S3) (?v1 S3)) (=> (not (= ?v0 ?v1)) (=> (= (f16 (f24 f25 ?v1) ?v0) f1) (= (f16 (f24 f26 ?v1) ?v0) f1)))))
(assert (forall ((?v0 S2) (?v1 S2)) (=> (not (= ?v0 ?v1)) (=> (= (f3 (f5 f6 ?v0) ?v1) f1) (= (f3 (f5 f19 ?v0) ?v1) f1)))))
(assert (forall ((?v0 S1) (?v1 S1)) (=> (not (= (= ?v0 f1) (= ?v1 f1))) (=> (= (f21 (f22 f23 ?v0) ?v1) f1) (= (f21 (f22 f27 ?v0) ?v1) f1)))))
(assert (forall ((?v0 S3) (?v1 S3)) (=> (not (= ?v0 ?v1)) (=> (= (f16 (f24 f25 ?v0) ?v1) f1) (= (f16 (f24 f26 ?v0) ?v1) f1)))))
(assert (forall ((?v0 S2) (?v1 S2)) (=> (not (= (f3 (f5 f19 ?v0) ?v1) f1)) (= (= (f3 (f5 f6 ?v0) ?v1) f1) (= ?v0 ?v1)))))
(assert (forall ((?v0 S2) (?v1 S2)) (=> (not (= (f3 (f5 f6 ?v0) ?v1) f1)) (= (f3 (f5 f19 ?v1) ?v0) f1))))
(assert (forall ((?v0 S2) (?v1 S2)) (=> (not (= (f3 (f5 f19 ?v0) ?v1) f1)) (= (f3 (f5 f6 ?v1) ?v0) f1))))
(assert (forall ((?v0 S2) (?v1 S2)) (= (= (f3 (f5 f6 ?v0) ?v1) f1) (or (= (f3 (f5 f19 ?v0) ?v1) f1) (= ?v0 ?v1)))))
(assert (forall ((?v0 S1) (?v1 S1)) (= (= (f21 (f22 f23 ?v0) ?v1) f1) (or (= (f21 (f22 f27 ?v0) ?v1) f1) (= (= ?v0 f1) (= ?v1 f1))))))
(assert (forall ((?v0 S3) (?v1 S3)) (= (= (f16 (f24 f25 ?v0) ?v1) f1) (or (= (f16 (f24 f26 ?v0) ?v1) f1) (= ?v0 ?v1)))))
(assert (forall ((?v0 S2) (?v1 S2)) (= (= (f3 (f5 f19 ?v0) ?v1) f1) (and (= (f3 (f5 f6 ?v0) ?v1) f1) (not (= (f3 (f5 f6 ?v1) ?v0) f1))))))
(assert (forall ((?v0 S1) (?v1 S1)) (= (= (f21 (f22 f27 ?v0) ?v1) f1) (and (= (f21 (f22 f23 ?v0) ?v1) f1) (not (= (f21 (f22 f23 ?v1) ?v0) f1))))))
(assert (forall ((?v0 S3) (?v1 S3)) (= (= (f16 (f24 f26 ?v0) ?v1) f1) (and (= (f16 (f24 f25 ?v0) ?v1) f1) (not (= (f16 (f24 f25 ?v1) ?v0) f1))))))
(assert (forall ((?v0 S2) (?v1 S2)) (= (= (f3 (f5 f19 ?v0) ?v1) f1) (and (= (f3 (f5 f6 ?v0) ?v1) f1) (not (= ?v0 ?v1))))))
(assert (forall ((?v0 S1) (?v1 S1)) (= (= (f21 (f22 f27 ?v0) ?v1) f1) (and (= (f21 (f22 f23 ?v0) ?v1) f1) (not (= (= ?v0 f1) (= ?v1 f1)))))))
(assert (forall ((?v0 S3) (?v1 S3)) (= (= (f16 (f24 f26 ?v0) ?v1) f1) (and (= (f16 (f24 f25 ?v0) ?v1) f1) (not (= ?v0 ?v1))))))
(assert (forall ((?v0 S2) (?v1 S2)) (or (= (f3 (f5 f6 ?v0) ?v1) f1) (= (f3 (f5 f19 ?v1) ?v0) f1))))
(assert (forall ((?v0 S2) (?v1 S2)) (= (not (= (f3 (f5 f6 ?v0) ?v1) f1)) (= (f3 (f5 f19 ?v1) ?v0) f1))))
(assert (forall ((?v0 S2) (?v1 S2)) (= (not (= (f3 (f5 f19 ?v0) ?v1) f1)) (= (f3 (f5 f6 ?v1) ?v0) f1))))
(assert (forall ((?v0 S2) (?v1 S2)) (= (= (f3 (f5 f6 ?v0) ?v1) f1) (or (= (f3 (f5 f19 ?v0) ?v1) f1) (= ?v0 ?v1)))))
(assert (forall ((?v0 S2) (?v1 S2)) (= (= (f3 (f5 f19 ?v0) ?v1) f1) (and (= (f3 (f5 f6 ?v0) ?v1) f1) (not (= ?v0 ?v1))))))
(assert (forall ((?v0 S3)) (=> (= (f16 (f24 f25 f13) ?v0) f1) (= ?v0 f13))))
(assert (forall ((?v0 S1)) (=> (= (f21 (f22 f23 f28) ?v0) f1) (= (= ?v0 f1) (= f28 f1)))))
(assert (forall ((?v0 S2) (?v1 S3)) (= (= (f16 (f17 f18 ?v0) ?v1) f1) (= (f3 ?v1 ?v0) f1))))
(assert (forall ((?v0 S3)) (= (f10 f14 ?v0) ?v0)))
(assert (forall ((?v0 S3)) (= (= (f16 (f24 f25 f13) ?v0) f1) (= ?v0 f13))))
(assert (forall ((?v0 S1)) (= (= (f21 (f22 f23 f28) ?v0) f1) (= (= ?v0 f1) (= f28 f1)))))
(assert (forall ((?v0 S3)) (= (f16 (f24 f25 ?v0) f13) f1)))
(assert (forall ((?v0 S1)) (= (f21 (f22 f23 ?v0) f28) f1)))
(assert (forall ((?v0 S2) (?v1 S2)) (=> (=> (= (f3 (f5 f6 ?v0) ?v1) f1) false) (=> (=> (= (f3 (f5 f6 ?v1) ?v0) f1) false) false))))
(assert (forall ((?v0 S3) (?v1 S3) (?v2 S2)) (=> (= (f16 (f24 f25 ?v0) ?v1) f1) (=> (=> (= (f21 (f22 f23 (f3 ?v0 ?v2)) (f3 ?v1 ?v2)) f1) false) false))))
(assert (forall ((?v0 S2) (?v1 S2) (?v2 S2)) (let ((?v_0 (f5 f6 ?v2))) (=> (= (f3 (f5 f6 ?v0) ?v1) f1) (=> (= (f3 ?v_0 ?v0) f1) (= (f3 ?v_0 ?v1) f1))))))
(assert (forall ((?v0 S1) (?v1 S1) (?v2 S1)) (let ((?v_0 (f22 f23 ?v2))) (=> (= (f21 (f22 f23 ?v0) ?v1) f1) (=> (= (f21 ?v_0 ?v0) f1) (= (f21 ?v_0 ?v1) f1))))))
(assert (forall ((?v0 S3) (?v1 S3) (?v2 S3)) (let ((?v_0 (f24 f25 ?v2))) (=> (= (f16 (f24 f25 ?v0) ?v1) f1) (=> (= (f16 ?v_0 ?v0) f1) (= (f16 ?v_0 ?v1) f1))))))
(assert (forall ((?v0 S2) (?v1 S2)) (=> (= (f3 (f5 f6 ?v0) ?v1) f1) (=> (= (f3 (f5 f6 ?v1) ?v0) f1) (= ?v1 ?v0)))))
(assert (forall ((?v0 S1) (?v1 S1)) (=> (= (f21 (f22 f23 ?v0) ?v1) f1) (=> (= (f21 (f22 f23 ?v1) ?v0) f1) (= (= ?v1 f1) (= ?v0 f1))))))
(assert (forall ((?v0 S3) (?v1 S3)) (=> (= (f16 (f24 f25 ?v0) ?v1) f1) (=> (= (f16 (f24 f25 ?v1) ?v0) f1) (= ?v1 ?v0)))))
(assert (forall ((?v0 S2) (?v1 S2) (?v2 S2)) (let ((?v_0 (f5 f6 ?v0))) (=> (= (f3 ?v_0 ?v1) f1) (=> (= (f3 (f5 f6 ?v1) ?v2) f1) (= (f3 ?v_0 ?v2) f1))))))
(assert (forall ((?v0 S1) (?v1 S1) (?v2 S1)) (let ((?v_0 (f22 f23 ?v0))) (=> (= (f21 ?v_0 ?v1) f1) (=> (= (f21 (f22 f23 ?v1) ?v2) f1) (= (f21 ?v_0 ?v2) f1))))))
(assert (forall ((?v0 S3) (?v1 S3) (?v2 S3)) (let ((?v_0 (f24 f25 ?v0))) (=> (= (f16 ?v_0 ?v1) f1) (=> (= (f16 (f24 f25 ?v1) ?v2) f1) (= (f16 ?v_0 ?v2) f1))))))
(assert (forall ((?v0 S2) (?v1 S2)) (=> (= (f3 (f5 f6 ?v0) ?v1) f1) (=> (= (f3 (f5 f6 ?v1) ?v0) f1) (= ?v0 ?v1)))))
(assert (forall ((?v0 S1) (?v1 S1)) (=> (= (f21 (f22 f23 ?v0) ?v1) f1) (=> (= (f21 (f22 f23 ?v1) ?v0) f1) (= (= ?v0 f1) (= ?v1 f1))))))
(assert (forall ((?v0 S3) (?v1 S3)) (=> (= (f16 (f24 f25 ?v0) ?v1) f1) (=> (= (f16 (f24 f25 ?v1) ?v0) f1) (= ?v0 ?v1)))))
(assert (forall ((?v0 S2) (?v1 S2) (?v2 S2)) (=> (= (f3 (f5 f6 ?v0) ?v1) f1) (=> (= ?v0 ?v2) (= (f3 (f5 f6 ?v2) ?v1) f1)))))
(assert (forall ((?v0 S1) (?v1 S1) (?v2 S1)) (=> (= (f21 (f22 f23 ?v0) ?v1) f1) (=> (= (= ?v0 f1) (= ?v2 f1)) (= (f21 (f22 f23 ?v2) ?v1) f1)))))
(assert (forall ((?v0 S3) (?v1 S3) (?v2 S3)) (=> (= (f16 (f24 f25 ?v0) ?v1) f1) (=> (= ?v0 ?v2) (= (f16 (f24 f25 ?v2) ?v1) f1)))))
(assert (forall ((?v0 S2) (?v1 S2) (?v2 S2)) (let ((?v_0 (f5 f6 ?v0))) (=> (= (f3 ?v_0 ?v1) f1) (=> (= ?v1 ?v2) (= (f3 ?v_0 ?v2) f1))))))
(assert (forall ((?v0 S1) (?v1 S1) (?v2 S1)) (let ((?v_0 (f22 f23 ?v0))) (=> (= (f21 ?v_0 ?v1) f1) (=> (= (= ?v1 f1) (= ?v2 f1)) (= (f21 ?v_0 ?v2) f1))))))
(assert (forall ((?v0 S3) (?v1 S3) (?v2 S3)) (let ((?v_0 (f24 f25 ?v0))) (=> (= (f16 ?v_0 ?v1) f1) (=> (= ?v1 ?v2) (= (f16 ?v_0 ?v2) f1))))))
(assert (forall ((?v0 S2) (?v1 S2) (?v2 S2)) (let ((?v_0 (f5 f6 ?v2))) (=> (= ?v0 ?v1) (=> (= (f3 ?v_0 ?v1) f1) (= (f3 ?v_0 ?v0) f1))))))
(assert (forall ((?v0 S1) (?v1 S1) (?v2 S1)) (let ((?v_0 (f22 f23 ?v2))) (=> (= (= ?v0 f1) (= ?v1 f1)) (=> (= (f21 ?v_0 ?v1) f1) (= (f21 ?v_0 ?v0) f1))))))
(assert (forall ((?v0 S3) (?v1 S3) (?v2 S3)) (let ((?v_0 (f24 f25 ?v2))) (=> (= ?v0 ?v1) (=> (= (f16 ?v_0 ?v1) f1) (= (f16 ?v_0 ?v0) f1))))))
(assert (forall ((?v0 S2) (?v1 S2) (?v2 S2)) (=> (= ?v0 ?v1) (=> (= (f3 (f5 f6 ?v1) ?v2) f1) (= (f3 (f5 f6 ?v0) ?v2) f1)))))
(assert (forall ((?v0 S1) (?v1 S1) (?v2 S1)) (=> (= (= ?v0 f1) (= ?v1 f1)) (=> (= (f21 (f22 f23 ?v1) ?v2) f1) (= (f21 (f22 f23 ?v0) ?v2) f1)))))
(assert (forall ((?v0 S3) (?v1 S3) (?v2 S3)) (=> (= ?v0 ?v1) (=> (= (f16 (f24 f25 ?v1) ?v2) f1) (= (f16 (f24 f25 ?v0) ?v2) f1)))))
(assert (forall ((?v0 S2) (?v1 S2)) (=> (= (f3 (f5 f6 ?v0) ?v1) f1) (= (= (f3 (f5 f6 ?v1) ?v0) f1) (= ?v1 ?v0)))))
(assert (forall ((?v0 S1) (?v1 S1)) (=> (= (f21 (f22 f23 ?v0) ?v1) f1) (= (= (f21 (f22 f23 ?v1) ?v0) f1) (= (= ?v1 f1) (= ?v0 f1))))))
(assert (forall ((?v0 S3) (?v1 S3)) (=> (= (f16 (f24 f25 ?v0) ?v1) f1) (= (= (f16 (f24 f25 ?v1) ?v0) f1) (= ?v1 ?v0)))))
(assert (forall ((?v0 S3) (?v1 S3) (?v2 S2)) (=> (= (f16 (f24 f25 ?v0) ?v1) f1) (= (f21 (f22 f23 (f3 ?v0 ?v2)) (f3 ?v1 ?v2)) f1))))
(assert (forall ((?v0 S2)) (= (f3 f13 ?v0) f1)))
(assert (forall ((?v0 S2)) (= (f16 (f17 f18 ?v0) f13) f1)))
(assert (forall ((?v0 S2)) (= (= (f16 (f17 f18 ?v0) f13) f1) true)))
(assert (exists ((?v0 S2)) (= (f3 (f10 (f11 f29 f13) (f10 f14 f9)) ?v0) f1)))
(assert (forall ((?v0 S3) (?v1 S3)) (=> (forall ((?v2 S2)) (= (f21 (f22 f23 (f3 ?v0 ?v2)) (f3 ?v1 ?v2)) f1)) (= (f16 (f24 f25 ?v0) ?v1) f1))))
(assert (forall ((?v0 S12) (?v1 S1) (?v2 S2) (?v3 S1)) (=> (= (f3 (f5 f6 (f30 ?v0 ?v1)) ?v2) f1) (=> (= (f21 (f22 f27 ?v3) ?v1) f1) (=> (forall ((?v4 S1) (?v5 S1)) (=> (= (f21 (f22 f27 ?v5) ?v4) f1) (= (f3 (f5 f19 (f30 ?v0 ?v5)) (f30 ?v0 ?v4)) f1))) (= (f3 (f5 f19 (f30 ?v0 ?v3)) ?v2) f1))))))
(assert (forall ((?v0 S13) (?v1 S3) (?v2 S2) (?v3 S3)) (=> (= (f3 (f5 f6 (f31 ?v0 ?v1)) ?v2) f1) (=> (= (f16 (f24 f26 ?v3) ?v1) f1) (=> (forall ((?v4 S3) (?v5 S3)) (=> (= (f16 (f24 f26 ?v5) ?v4) f1) (= (f3 (f5 f19 (f31 ?v0 ?v5)) (f31 ?v0 ?v4)) f1))) (= (f3 (f5 f19 (f31 ?v0 ?v3)) ?v2) f1))))))
(assert (forall ((?v0 S3) (?v1 S2) (?v2 S1) (?v3 S2)) (=> (= (f21 (f22 f23 (f3 ?v0 ?v1)) ?v2) f1) (=> (= (f3 (f5 f19 ?v3) ?v1) f1) (=> (forall ((?v4 S2) (?v5 S2)) (=> (= (f3 (f5 f19 ?v5) ?v4) f1) (= (f21 (f22 f27 (f3 ?v0 ?v5)) (f3 ?v0 ?v4)) f1))) (= (f21 (f22 f27 (f3 ?v0 ?v3)) ?v2) f1))))))
(assert (forall ((?v0 S4) (?v1 S2) (?v2 S3) (?v3 S2)) (=> (= (f16 (f24 f25 (f5 ?v0 ?v1)) ?v2) f1) (=> (= (f3 (f5 f19 ?v3) ?v1) f1) (=> (forall ((?v4 S2) (?v5 S2)) (=> (= (f3 (f5 f19 ?v5) ?v4) f1) (= (f16 (f24 f26 (f5 ?v0 ?v5)) (f5 ?v0 ?v4)) f1))) (= (f16 (f24 f26 (f5 ?v0 ?v3)) ?v2) f1))))))
(assert (forall ((?v0 S12) (?v1 S1) (?v2 S2) (?v3 S1)) (=> (= (f3 (f5 f19 (f30 ?v0 ?v1)) ?v2) f1) (=> (= (f21 (f22 f23 ?v3) ?v1) f1) (=> (forall ((?v4 S1) (?v5 S1)) (=> (= (f21 (f22 f23 ?v5) ?v4) f1) (= (f3 (f5 f6 (f30 ?v0 ?v5)) (f30 ?v0 ?v4)) f1))) (= (f3 (f5 f19 (f30 ?v0 ?v3)) ?v2) f1))))))
(assert (forall ((?v0 S13) (?v1 S3) (?v2 S2) (?v3 S3)) (=> (= (f3 (f5 f19 (f31 ?v0 ?v1)) ?v2) f1) (=> (= (f16 (f24 f25 ?v3) ?v1) f1) (=> (forall ((?v4 S3) (?v5 S3)) (=> (= (f16 (f24 f25 ?v5) ?v4) f1) (= (f3 (f5 f6 (f31 ?v0 ?v5)) (f31 ?v0 ?v4)) f1))) (= (f3 (f5 f19 (f31 ?v0 ?v3)) ?v2) f1))))))
(assert (forall ((?v0 S3) (?v1 S2) (?v2 S1) (?v3 S2)) (=> (= (f21 (f22 f27 (f3 ?v0 ?v1)) ?v2) f1) (=> (= (f3 (f5 f6 ?v3) ?v1) f1) (=> (forall ((?v4 S2) (?v5 S2)) (=> (= (f3 (f5 f6 ?v5) ?v4) f1) (= (f21 (f22 f23 (f3 ?v0 ?v5)) (f3 ?v0 ?v4)) f1))) (= (f21 (f22 f27 (f3 ?v0 ?v3)) ?v2) f1))))))
(assert (forall ((?v0 S4) (?v1 S2) (?v2 S3) (?v3 S2)) (=> (= (f16 (f24 f26 (f5 ?v0 ?v1)) ?v2) f1) (=> (= (f3 (f5 f6 ?v3) ?v1) f1) (=> (forall ((?v4 S2) (?v5 S2)) (=> (= (f3 (f5 f6 ?v5) ?v4) f1) (= (f16 (f24 f25 (f5 ?v0 ?v5)) (f5 ?v0 ?v4)) f1))) (= (f16 (f24 f26 (f5 ?v0 ?v3)) ?v2) f1))))))
(assert (forall ((?v0 S2) (?v1 S12) (?v2 S1) (?v3 S1)) (=> (= (f3 (f5 f6 ?v0) (f30 ?v1 ?v2)) f1) (=> (= (f21 (f22 f27 ?v2) ?v3) f1) (=> (forall ((?v4 S1) (?v5 S1)) (=> (= (f21 (f22 f27 ?v4) ?v5) f1) (= (f3 (f5 f19 (f30 ?v1 ?v4)) (f30 ?v1 ?v5)) f1))) (= (f3 (f5 f19 ?v0) (f30 ?v1 ?v3)) f1))))))
(assert (forall ((?v0 S2) (?v1 S13) (?v2 S3) (?v3 S3)) (=> (= (f3 (f5 f6 ?v0) (f31 ?v1 ?v2)) f1) (=> (= (f16 (f24 f26 ?v2) ?v3) f1) (=> (forall ((?v4 S3) (?v5 S3)) (=> (= (f16 (f24 f26 ?v4) ?v5) f1) (= (f3 (f5 f19 (f31 ?v1 ?v4)) (f31 ?v1 ?v5)) f1))) (= (f3 (f5 f19 ?v0) (f31 ?v1 ?v3)) f1))))))
(assert (forall ((?v0 S1) (?v1 S3) (?v2 S2) (?v3 S2)) (=> (= (f21 (f22 f23 ?v0) (f3 ?v1 ?v2)) f1) (=> (= (f3 (f5 f19 ?v2) ?v3) f1) (=> (forall ((?v4 S2) (?v5 S2)) (=> (= (f3 (f5 f19 ?v4) ?v5) f1) (= (f21 (f22 f27 (f3 ?v1 ?v4)) (f3 ?v1 ?v5)) f1))) (= (f21 (f22 f27 ?v0) (f3 ?v1 ?v3)) f1))))))
(assert (forall ((?v0 S3) (?v1 S4) (?v2 S2) (?v3 S2)) (=> (= (f16 (f24 f25 ?v0) (f5 ?v1 ?v2)) f1) (=> (= (f3 (f5 f19 ?v2) ?v3) f1) (=> (forall ((?v4 S2) (?v5 S2)) (=> (= (f3 (f5 f19 ?v4) ?v5) f1) (= (f16 (f24 f26 (f5 ?v1 ?v4)) (f5 ?v1 ?v5)) f1))) (= (f16 (f24 f26 ?v0) (f5 ?v1 ?v3)) f1))))))
(assert (forall ((?v0 S2) (?v1 S12) (?v2 S1) (?v3 S1)) (let ((?v_0 (f5 f19 ?v0))) (=> (= (f3 ?v_0 (f30 ?v1 ?v2)) f1) (=> (= (f21 (f22 f23 ?v2) ?v3) f1) (=> (forall ((?v4 S1) (?v5 S1)) (=> (= (f21 (f22 f23 ?v4) ?v5) f1) (= (f3 (f5 f6 (f30 ?v1 ?v4)) (f30 ?v1 ?v5)) f1))) (= (f3 ?v_0 (f30 ?v1 ?v3)) f1)))))))
(assert (forall ((?v0 S2) (?v1 S13) (?v2 S3) (?v3 S3)) (let ((?v_0 (f5 f19 ?v0))) (=> (= (f3 ?v_0 (f31 ?v1 ?v2)) f1) (=> (= (f16 (f24 f25 ?v2) ?v3) f1) (=> (forall ((?v4 S3) (?v5 S3)) (=> (= (f16 (f24 f25 ?v4) ?v5) f1) (= (f3 (f5 f6 (f31 ?v1 ?v4)) (f31 ?v1 ?v5)) f1))) (= (f3 ?v_0 (f31 ?v1 ?v3)) f1)))))))
(assert (forall ((?v0 S1) (?v1 S3) (?v2 S2) (?v3 S2)) (let ((?v_0 (f22 f27 ?v0))) (=> (= (f21 ?v_0 (f3 ?v1 ?v2)) f1) (=> (= (f3 (f5 f6 ?v2) ?v3) f1) (=> (forall ((?v4 S2) (?v5 S2)) (=> (= (f3 (f5 f6 ?v4) ?v5) f1) (= (f21 (f22 f23 (f3 ?v1 ?v4)) (f3 ?v1 ?v5)) f1))) (= (f21 ?v_0 (f3 ?v1 ?v3)) f1)))))))
(assert (forall ((?v0 S3) (?v1 S4) (?v2 S2) (?v3 S2)) (let ((?v_0 (f24 f26 ?v0))) (=> (= (f16 ?v_0 (f5 ?v1 ?v2)) f1) (=> (= (f3 (f5 f6 ?v2) ?v3) f1) (=> (forall ((?v4 S2) (?v5 S2)) (=> (= (f3 (f5 f6 ?v4) ?v5) f1) (= (f16 (f24 f25 (f5 ?v1 ?v4)) (f5 ?v1 ?v5)) f1))) (= (f16 ?v_0 (f5 ?v1 ?v3)) f1)))))))
(assert (forall ((?v0 S1) (?v1 S1) (?v2 S12) (?v3 S2)) (=> (= (f21 (f22 f23 ?v0) ?v1) f1) (=> (= (f3 (f5 f19 (f30 ?v2 ?v1)) ?v3) f1) (=> (forall ((?v4 S1) (?v5 S1)) (=> (= (f21 (f22 f23 ?v4) ?v5) f1) (= (f3 (f5 f6 (f30 ?v2 ?v4)) (f30 ?v2 ?v5)) f1))) (= (f3 (f5 f19 (f30 ?v2 ?v0)) ?v3) f1))))))
(assert (forall ((?v0 S3) (?v1 S3) (?v2 S13) (?v3 S2)) (=> (= (f16 (f24 f25 ?v0) ?v1) f1) (=> (= (f3 (f5 f19 (f31 ?v2 ?v1)) ?v3) f1) (=> (forall ((?v4 S3) (?v5 S3)) (=> (= (f16 (f24 f25 ?v4) ?v5) f1) (= (f3 (f5 f6 (f31 ?v2 ?v4)) (f31 ?v2 ?v5)) f1))) (= (f3 (f5 f19 (f31 ?v2 ?v0)) ?v3) f1))))))
(assert (forall ((?v0 S2) (?v1 S2) (?v2 S3) (?v3 S1)) (=> (= (f3 (f5 f6 ?v0) ?v1) f1) (=> (= (f21 (f22 f27 (f3 ?v2 ?v1)) ?v3) f1) (=> (forall ((?v4 S2) (?v5 S2)) (=> (= (f3 (f5 f6 ?v4) ?v5) f1) (= (f21 (f22 f23 (f3 ?v2 ?v4)) (f3 ?v2 ?v5)) f1))) (= (f21 (f22 f27 (f3 ?v2 ?v0)) ?v3) f1))))))
(assert (forall ((?v0 S2) (?v1 S2) (?v2 S4) (?v3 S3)) (=> (= (f3 (f5 f6 ?v0) ?v1) f1) (=> (= (f16 (f24 f26 (f5 ?v2 ?v1)) ?v3) f1) (=> (forall ((?v4 S2) (?v5 S2)) (=> (= (f3 (f5 f6 ?v4) ?v5) f1) (= (f16 (f24 f25 (f5 ?v2 ?v4)) (f5 ?v2 ?v5)) f1))) (= (f16 (f24 f26 (f5 ?v2 ?v0)) ?v3) f1))))))
(assert (forall ((?v0 S3) (?v1 S3)) (= (= (f16 (f24 f26 ?v0) ?v1) f1) (and (= (f16 (f24 f25 ?v0) ?v1) f1) (not (= (f16 (f24 f25 ?v1) ?v0) f1))))))
(assert (forall ((?v0 S3)) (= (f16 (f24 f25 ?v0) f13) f1)))
(assert (= f13 (f10 f14 f4)))
(assert (forall ((?v0 S3) (?v1 S3) (?v2 S2) (?v3 S2)) (=> (= (f3 (f10 (f11 f12 ?v0) ?v1) ?v2) f1) (=> (= (f3 (f10 (f11 f29 ?v0) ?v1) ?v3) f1) (= (f3 (f5 f6 ?v2) ?v3) f1)))))
(assert (forall ((?v0 S9) (?v1 S9) (?v2 S1) (?v3 S1)) (=> (= (f21 (f32 (f33 f34 ?v0) ?v1) ?v2) f1) (=> (= (f21 (f32 (f33 f35 ?v0) ?v1) ?v3) f1) (= (f21 (f22 f23 ?v2) ?v3) f1)))))
(assert (forall ((?v0 S7) (?v1 S7) (?v2 S3) (?v3 S3)) (=> (= (f16 (f36 (f37 f38 ?v0) ?v1) ?v2) f1) (=> (= (f16 (f36 (f37 f39 ?v0) ?v1) ?v3) f1) (= (f16 (f24 f25 ?v2) ?v3) f1)))))
(check-sat)
(exit)
